
        $ From http://www.csplib.org/Problems/prob009/data/helmut.pdf
        $ Problem number 97
        $ Sequence length : 25
        language ESSENCE' 1.0
        letting sizemaster be 336
        letting sizes be sequence(2,3,4,7,8,10,14,17,26,27,28,36,38,40,45,50,53,58,73,74,79,94,110,152,184)
        